p edge 50 150
e 1 6
e 1 33
e 1 50
e 2 25
e 2 25
e 2 40
e 3 38
e 3 49
e 3 50
e 4 37
e 4 37
e 4 48
e 5 22
e 5 36
e 5 37
e 6 3
e 6 5
e 6 36
e 7 22
e 7 42
e 7 44
e 8 15
e 8 18
e 8 22
e 9 20
e 9 28
e 9 34
e 10 9
e 10 18
e 10 33
e 11 1
e 11 24
e 11 45
e 12 3
e 12 5
e 12 24
e 13 7
e 13 41
e 13 46
e 14 12
e 14 43
e 14 47
e 15 2
e 15 16
e 15 22
e 16 4
e 16 17
e 16 23
e 17 7
e 17 28
e 17 30
e 18 5
e 18 7
e 18 21
e 19 27
e 19 32
e 19 41
e 20 14
e 20 42
e 20 49
e 21 27
e 21 34
e 21 48
e 22 7
e 22 19
e 22 31
e 23 1
e 23 24
e 23 49
e 24 19
e 24 34
e 24 46
e 25 6
e 25 7
e 25 41
e 26 7
e 26 9
e 26 33
e 27 9
e 27 12
e 27 30
e 28 4
e 28 17
e 28 49
e 29 8
e 29 44
e 29 48
e 30 11
e 30 22
e 30 39
e 31 16
e 31 17
e 31 25
e 32 23
e 32 27
e 32 28
e 33 4
e 33 10
e 33 34
e 34 31
e 34 32
e 34 46
e 35 22
e 35 24
e 35 36
e 36 23
e 36 38
e 36 45
e 37 3
e 37 24
e 37 50
e 38 41
e 38 43
e 38 48
e 39 27
e 39 31
e 39 42
e 40 26
e 40 35
e 40 44
e 41 14
e 41 39
e 41 45
e 42 2
e 42 21
e 42 40
e 43 2
e 43 29
e 43 49
e 44 4
e 44 16
e 44 46
e 45 13
e 45 23
e 45 28
e 46 14
e 46 35
e 46 49
e 47 5
e 47 9
e 47 36
e 48 4
e 48 11
e 48 40
e 49 16
e 49 36
e 49 48
e 50 14
e 50 28
e 50 39
